bestever    1697    in generation 0
[19, 20, 10, 4, 9, 13, 18, 17, 14, 12, 15, 11, 5, 16, 2, 1, 6, 7, 3, 8, 19, 20, 10, 4, 9, 13, 18, 17, 14, 12, 15, 11, 5, 16, 2, 1, 6, 7, 3, 8, 19, 20, 10, 4, 9, 13, 18, 17, 14, 12, 15, 11, 5, 16, 2, 1, 6, 7, 3, 8, 19, 20, 10, 4, 9, 13, 18, 17, 14, 12, 15, 11, 5, 16, 2, 1, 6, 7, 3, 8, 19, 20, 10, 4, 9, 13, 18, 17, 14, 12, 15, 11, 5, 16, 2, 1, 6, 7, 3, 8, 19, 20, 10, 4, 9, 13, 18, 17, 14, 12, 15, 11, 5, 16, 2, 1, 6, 7, 3, 8, 19, 20, 10, 4, 9, 13, 18, 17, 14, 12, 15, 11, 5, 16, 2, 1, 6, 7, 3, 8, 19, 20, 10, 4, 9, 13, 18, 17, 14, 12, 15, 11, 5, 16, 2, 1, 6, 7, 3, 8, 19, 20, 10, 4, 9, 13, 18, 17, 14, 12, 15, 11, 5, 16, 2, 1, 6, 7, 3, 8, 19, 20, 10, 4, 9, 13, 18, 17, 14, 12, 15, 11, 5, 16, 2, 1, 6, 7, 3, 8]
bestever    1674    in generation 102
[19, 20, 10, 4, 9, 13, 18, 17, 14, 12, 15, 11, 5, 16, 2, 3, 1, 6, 7, 8, 19, 20, 10, 4, 9, 13, 18, 17, 14, 12, 15, 11, 5, 16, 2, 3, 1, 6, 7, 8, 19, 20, 10, 4, 9, 13, 18, 17, 14, 12, 15, 11, 5, 16, 2, 3, 1, 6, 7, 8, 19, 20, 10, 4, 9, 13, 18, 17, 14, 12, 15, 11, 5, 16, 2, 3, 1, 6, 7, 8, 19, 20, 10, 4, 9, 13, 18, 17, 14, 12, 15, 11, 5, 16, 2, 3, 1, 6, 7, 8, 19, 20, 10, 4, 9, 13, 18, 17, 14, 12, 15, 11, 5, 16, 2, 3, 1, 6, 7, 8, 19, 20, 10, 4, 9, 13, 18, 17, 14, 12, 15, 11, 5, 16, 2, 3, 1, 6, 7, 8, 19, 20, 10, 4, 9, 13, 18, 17, 14, 12, 15, 11, 5, 16, 2, 3, 1, 6, 7, 8, 19, 20, 10, 4, 9, 13, 18, 17, 14, 12, 15, 11, 5, 16, 2, 3, 1, 6, 7, 8, 19, 20, 10, 4, 9, 13, 18, 17, 14, 12, 15, 11, 5, 16, 2, 3, 1, 6, 7, 8]
bestever    1664    in generation 212
[19, 20, 10, 4, 9, 13, 18, 17, 14, 12, 15, 2, 11, 5, 3, 1, 6, 16, 7, 8, 19, 20, 10, 4, 9, 13, 18, 17, 14, 12, 15, 2, 11, 5, 3, 1, 6, 16, 7, 8, 19, 20, 10, 4, 9, 13, 18, 17, 14, 12, 15, 2, 11, 5, 3, 1, 6, 16, 7, 8, 19, 20, 10, 4, 9, 13, 18, 17, 14, 12, 15, 2, 11, 5, 3, 1, 6, 16, 7, 8, 19, 20, 10, 4, 9, 13, 18, 17, 14, 12, 15, 2, 11, 5, 3, 1, 6, 16, 7, 8, 19, 20, 10, 4, 9, 13, 18, 17, 14, 12, 15, 2, 11, 5, 3, 1, 6, 16, 7, 8, 19, 20, 10, 4, 9, 13, 18, 17, 14, 12, 15, 2, 11, 5, 3, 1, 6, 16, 7, 8, 20, 10, 4, 9, 13, 18, 19, 17, 14, 12, 15, 2, 11, 5, 3, 1, 6, 16, 7, 8, 20, 10, 4, 9, 13, 18, 19, 17, 14, 12, 15, 2, 11, 5, 3, 1, 6, 16, 7, 8, 20, 10, 4, 9, 13, 18, 19, 17, 14, 12, 15, 2, 11, 5, 3, 1, 6, 16, 7, 8]
bestever    1659    in generation 253
[19, 20, 10, 4, 9, 13, 18, 17, 14, 12, 15, 2, 11, 5, 3, 1, 6, 16, 7, 8, 19, 20, 10, 4, 9, 13, 18, 17, 14, 12, 15, 2, 11, 5, 3, 1, 6, 16, 7, 8, 19, 20, 10, 4, 9, 13, 18, 17, 14, 12, 15, 2, 11, 5, 3, 1, 6, 16, 7, 8, 19, 20, 10, 4, 9, 13, 18, 17, 14, 12, 15, 2, 11, 5, 3, 1, 6, 16, 7, 8, 19, 20, 10, 4, 9, 13, 18, 17, 14, 12, 15, 2, 11, 5, 3, 1, 6, 16, 7, 8, 19, 20, 10, 4, 9, 13, 18, 17, 14, 12, 15, 2, 11, 5, 3, 19, 20, 10, 4, 9, 13, 18, 17, 14, 12, 15, 2, 11, 5, 3, 1, 6, 16, 7, 8, 1, 6, 16, 7, 8, 19, 20, 10, 4, 9, 13, 18, 17, 14, 12, 15, 2, 11, 5, 3, 1, 6, 16, 7, 8, 19, 20, 10, 4, 9, 13, 18, 17, 14, 12, 15, 2, 11, 19, 20, 10, 5, 3, 1, 6, 16, 7, 8, 4, 9, 13, 18, 17, 14, 12, 15, 2, 11, 5, 3, 1, 6, 16, 7, 8]
bestever    1655    in generation 356
[19, 20, 10, 4, 9, 13, 18, 17, 14, 12, 15, 2, 11, 5, 3, 1, 16, 7, 8, 6, 19, 20, 10, 4, 9, 13, 18, 17, 14, 12, 15, 2, 11, 5, 3, 1, 16, 7, 8, 6, 19, 20, 10, 4, 9, 13, 18, 17, 14, 12, 15, 2, 11, 5, 3, 1, 16, 7, 8, 6, 19, 20, 10, 4, 9, 13, 18, 17, 14, 12, 15, 2, 11, 5, 3, 1, 16, 7, 8, 6, 19, 20, 10, 4, 9, 13, 18, 17, 14, 12, 15, 2, 11, 5, 3, 1, 16, 7, 8, 6, 19, 20, 10, 4, 9, 13, 18, 17, 14, 12, 15, 2, 11, 5, 3, 1, 16, 7, 8, 6, 19, 20, 10, 4, 9, 13, 18, 17, 14, 12, 15, 2, 11, 5, 3, 1, 16, 7, 8, 6, 19, 20, 10, 4, 9, 13, 18, 17, 14, 12, 15, 2, 11, 5, 3, 1, 16, 7, 8, 6, 19, 20, 10, 4, 9, 13, 18, 17, 14, 12, 15, 2, 11, 5, 3, 1, 16, 7, 8, 6, 19, 20, 10, 4, 9, 13, 18, 17, 14, 12, 15, 2, 11, 5, 3, 1, 16, 7, 8, 6]
bestever    1649    in generation 460
[19, 20, 10, 4, 9, 13, 18, 17, 14, 5, 12, 15, 2, 11, 3, 1, 16, 7, 8, 6, 19, 20, 10, 4, 9, 13, 18, 17, 14, 5, 12, 15, 2, 11, 3, 1, 16, 7, 8, 6, 19, 20, 10, 4, 9, 13, 18, 17, 14, 5, 12, 15, 2, 11, 3, 1, 16, 7, 8, 6, 19, 20, 10, 4, 9, 13, 18, 17, 14, 5, 12, 15, 2, 11, 3, 1, 16, 7, 8, 6, 19, 20, 10, 4, 9, 13, 18, 17, 14, 5, 12, 15, 2, 11, 3, 1, 16, 7, 8, 6, 19, 20, 10, 4, 9, 13, 18, 17, 14, 5, 12, 15, 2, 11, 3, 1, 16, 7, 8, 6, 19, 20, 10, 4, 9, 13, 18, 17, 14, 5, 12, 15, 2, 11, 3, 1, 16, 7, 8, 6, 19, 20, 10, 4, 9, 13, 18, 17, 14, 5, 12, 15, 2, 11, 3, 1, 16, 7, 8, 6, 19, 20, 10, 4, 9, 13, 18, 17, 14, 5, 12, 15, 2, 11, 3, 1, 16, 7, 8, 6, 19, 20, 10, 4, 9, 13, 18, 17, 14, 5, 12, 15, 2, 11, 3, 1, 16, 7, 8, 6]
bestever    1640    in generation 580
[19, 20, 10, 4, 9, 13, 18, 17, 14, 12, 15, 2, 5, 11, 3, 1, 16, 7, 8, 6, 19, 20, 10, 4, 9, 13, 18, 17, 14, 12, 15, 2, 5, 11, 3, 1, 16, 7, 8, 6, 19, 20, 10, 4, 9, 13, 18, 17, 14, 12, 15, 2, 5, 11, 3, 1, 16, 7, 8, 6, 19, 20, 10, 4, 9, 13, 18, 17, 14, 12, 15, 2, 5, 11, 3, 1, 16, 7, 8, 6, 19, 20, 10, 4, 9, 13, 18, 17, 14, 12, 15, 2, 5, 11, 3, 1, 16, 7, 8, 6, 19, 20, 10, 4, 9, 13, 18, 17, 14, 12, 15, 2, 5, 11, 3, 1, 16, 7, 8, 6, 19, 20, 10, 4, 9, 13, 18, 17, 14, 12, 15, 2, 5, 11, 3, 1, 16, 7, 8, 6, 19, 20, 10, 4, 9, 13, 18, 17, 14, 12, 15, 2, 5, 11, 3, 1, 16, 7, 8, 6, 19, 20, 10, 4, 9, 13, 18, 17, 14, 12, 15, 2, 5, 11, 3, 1, 16, 7, 8, 6, 19, 20, 10, 4, 9, 13, 18, 17, 14, 12, 15, 2, 5, 11, 3, 1, 16, 7, 8, 6]
bestever    1623    in generation 684
[19, 20, 10, 4, 9, 13, 18, 17, 14, 2, 12, 15, 5, 11, 3, 1, 16, 7, 8, 6, 19, 20, 10, 4, 9, 13, 18, 17, 14, 2, 12, 15, 5, 11, 3, 1, 16, 7, 8, 6, 19, 20, 10, 4, 9, 13, 18, 17, 14, 2, 12, 15, 5, 11, 3, 1, 16, 7, 8, 6, 19, 20, 10, 4, 9, 13, 18, 17, 14, 2, 12, 15, 5, 11, 3, 1, 16, 7, 8, 6, 19, 20, 10, 4, 9, 13, 18, 17, 14, 2, 12, 15, 5, 11, 3, 1, 16, 7, 8, 6, 19, 20, 10, 4, 9, 13, 18, 17, 14, 2, 12, 15, 5, 11, 3, 1, 16, 7, 8, 6, 19, 20, 10, 4, 9, 13, 18, 17, 14, 2, 12, 15, 5, 11, 3, 1, 16, 7, 8, 6, 19, 20, 10, 4, 9, 13, 18, 17, 14, 2, 12, 15, 5, 11, 3, 1, 16, 7, 8, 6, 19, 20, 10, 4, 9, 13, 18, 17, 14, 2, 12, 15, 5, 11, 3, 1, 16, 7, 8, 6, 19, 20, 10, 4, 9, 13, 18, 17, 14, 2, 12, 15, 5, 11, 3, 1, 16, 7, 8, 6]
bestever    1617    in generation 786
[19, 20, 10, 4, 9, 13, 18, 17, 14, 2, 12, 15, 5, 11, 3, 1, 16, 8, 6, 7, 19, 20, 10, 4, 9, 13, 18, 17, 14, 2, 12, 15, 5, 11, 3, 1, 16, 8, 6, 7, 19, 20, 10, 4, 9, 13, 18, 17, 14, 2, 12, 15, 5, 11, 3, 1, 16, 8, 6, 7, 19, 20, 10, 4, 9, 13, 18, 17, 14, 2, 12, 15, 5, 11, 3, 1, 16, 8, 6, 7, 19, 20, 10, 4, 9, 13, 18, 17, 14, 2, 12, 15, 5, 11, 3, 1, 16, 8, 6, 7, 19, 20, 10, 4, 9, 13, 18, 17, 14, 2, 12, 15, 5, 11, 3, 1, 16, 8, 6, 7, 19, 20, 10, 4, 9, 13, 18, 17, 14, 2, 12, 15, 5, 11, 3, 1, 16, 8, 6, 7, 19, 20, 10, 4, 9, 13, 18, 17, 14, 2, 12, 15, 5, 11, 3, 1, 16, 8, 6, 7, 19, 20, 10, 4, 9, 13, 18, 17, 14, 2, 12, 15, 5, 11, 3, 1, 16, 8, 6, 7, 19, 20, 10, 4, 9, 13, 18, 17, 14, 2, 12, 15, 5, 11, 3, 1, 16, 8, 6, 7]
bestever    1614    in generation 894
[20, 19, 10, 4, 9, 13, 18, 17, 14, 2, 12, 15, 5, 11, 3, 1, 16, 8, 6, 7, 20, 19, 10, 4, 9, 13, 18, 17, 14, 2, 12, 15, 5, 11, 3, 1, 16, 8, 6, 7, 20, 19, 10, 4, 9, 13, 18, 17, 14, 2, 12, 15, 5, 11, 3, 1, 16, 8, 6, 7, 20, 19, 10, 4, 9, 13, 18, 17, 14, 2, 12, 15, 5, 11, 3, 1, 16, 8, 6, 7, 20, 19, 10, 4, 9, 13, 18, 17, 14, 2, 12, 15, 5, 11, 3, 1, 16, 8, 6, 7, 20, 19, 10, 4, 9, 13, 18, 17, 14, 2, 12, 15, 5, 11, 3, 1, 16, 8, 6, 7, 20, 19, 10, 4, 9, 13, 18, 17, 14, 2, 12, 15, 5, 11, 3, 1, 16, 8, 6, 7, 20, 19, 10, 4, 9, 13, 18, 17, 14, 2, 12, 15, 5, 11, 3, 1, 16, 8, 6, 7, 20, 19, 10, 4, 9, 13, 18, 17, 14, 2, 12, 15, 5, 11, 3, 1, 16, 8, 6, 7, 20, 19, 10, 4, 9, 13, 18, 17, 14, 2, 12, 15, 5, 11, 3, 1, 16, 8, 6, 7]
bestever    1609    in generation 998
[20, 19, 10, 4, 9, 13, 18, 17, 14, 2, 12, 5, 11, 15, 3, 1, 16, 8, 6, 7, 20, 19, 10, 4, 9, 13, 18, 17, 14, 2, 12, 5, 11, 15, 3, 1, 16, 8, 6, 7, 20, 19, 10, 4, 9, 13, 18, 17, 14, 2, 12, 5, 11, 15, 3, 1, 16, 8, 6, 7, 20, 19, 10, 4, 9, 13, 18, 17, 14, 2, 12, 5, 11, 15, 3, 1, 16, 8, 6, 7, 20, 19, 10, 4, 9, 13, 18, 17, 14, 2, 12, 5, 11, 15, 3, 1, 16, 8, 6, 7, 20, 19, 10, 4, 9, 13, 18, 17, 14, 2, 12, 5, 11, 15, 3, 1, 16, 8, 6, 7, 20, 19, 10, 4, 9, 13, 18, 17, 14, 2, 12, 5, 11, 15, 3, 1, 16, 8, 6, 7, 20, 19, 10, 4, 9, 13, 18, 17, 14, 2, 12, 5, 11, 15, 3, 1, 16, 8, 6, 7, 20, 19, 10, 4, 9, 13, 18, 17, 14, 2, 12, 5, 11, 15, 3, 1, 16, 8, 6, 7, 20, 19, 10, 4, 9, 13, 18, 17, 14, 2, 12, 5, 11, 15, 3, 1, 16, 8, 6, 7]
bestever    1593    in generation 1104
[20, 19, 10, 4, 9, 13, 18, 14, 2, 17, 12, 5, 11, 3, 15, 1, 7, 16, 8, 6, 20, 19, 10, 4, 9, 13, 18, 14, 2, 17, 12, 5, 11, 3, 15, 1, 16, 8, 7, 6, 20, 19, 10, 4, 9, 13, 18, 14, 2, 17, 12, 5, 11, 3, 15, 1, 8, 7, 16, 6, 20, 19, 10, 4, 9, 13, 18, 14, 2, 17, 12, 5, 11, 3, 15, 1, 7, 16, 8, 6, 20, 19, 10, 4, 9, 13, 18, 14, 2, 17, 12, 5, 11, 3, 15, 1, 16, 8, 6, 7, 20, 19, 10, 4, 9, 13, 18, 14, 2, 17, 12, 5, 11, 3, 15, 1, 16, 8, 6, 7, 20, 19, 10, 4, 9, 13, 18, 14, 2, 17, 12, 5, 11, 3, 15, 1, 16, 8, 6, 7, 20, 19, 10, 4, 9, 13, 18, 14, 2, 17, 12, 5, 11, 3, 15, 1, 16, 8, 6, 7, 20, 19, 10, 4, 9, 13, 18, 14, 2, 17, 12, 5, 11, 3, 15, 1, 16, 8, 6, 7, 20, 19, 10, 4, 9, 13, 18, 14, 2, 17, 12, 5, 11, 3, 15, 1, 16, 8, 6, 7]
bestever    1591    in generation 1209
[20, 19, 10, 9, 4, 13, 18, 14, 2, 17, 12, 5, 11, 3, 15, 1, 16, 8, 6, 7, 20, 19, 10, 9, 4, 13, 18, 14, 2, 17, 12, 5, 11, 3, 15, 1, 16, 8, 6, 7, 20, 19, 10, 9, 4, 13, 18, 14, 2, 17, 12, 5, 11, 3, 15, 1, 16, 8, 6, 7, 20, 19, 10, 9, 4, 13, 18, 14, 2, 17, 12, 5, 11, 3, 15, 1, 16, 8, 6, 7, 20, 19, 10, 9, 4, 13, 18, 14, 2, 17, 12, 5, 11, 3, 15, 1, 16, 8, 6, 7, 20, 19, 10, 9, 4, 13, 18, 14, 2, 17, 12, 5, 11, 3, 15, 1, 16, 8, 6, 7, 20, 19, 10, 9, 4, 13, 18, 14, 2, 17, 12, 5, 11, 3, 15, 1, 16, 8, 6, 7, 20, 19, 10, 9, 4, 13, 18, 14, 2, 17, 12, 5, 11, 3, 15, 1, 16, 8, 6, 7, 20, 19, 10, 9, 4, 13, 18, 14, 2, 17, 12, 5, 11, 3, 15, 1, 16, 8, 6, 7, 20, 19, 10, 9, 4, 13, 18, 14, 2, 17, 12, 5, 11, 3, 15, 1, 16, 8, 6, 7]
bestever    1586    in generation 1315
[14, 20, 19, 10, 9, 4, 13, 18, 2, 17, 12, 5, 11, 3, 15, 1, 16, 8, 6, 7, 14, 20, 19, 10, 9, 4, 13, 18, 2, 17, 12, 5, 11, 3, 15, 1, 16, 8, 6, 7, 14, 20, 19, 10, 9, 4, 13, 18, 2, 17, 12, 5, 11, 3, 15, 1, 16, 8, 6, 7, 14, 20, 19, 10, 9, 4, 13, 18, 2, 17, 12, 5, 11, 3, 15, 1, 16, 8, 6, 7, 14, 20, 19, 10, 9, 4, 13, 18, 2, 17, 12, 5, 11, 3, 15, 1, 16, 8, 6, 7, 14, 20, 19, 10, 9, 4, 13, 18, 2, 17, 12, 5, 11, 3, 15, 1, 16, 8, 6, 7, 14, 20, 19, 10, 9, 4, 13, 18, 2, 17, 12, 5, 11, 3, 15, 1, 16, 8, 6, 7, 14, 20, 19, 10, 9, 4, 13, 18, 2, 17, 12, 5, 11, 3, 15, 1, 16, 8, 6, 7, 14, 20, 19, 10, 9, 4, 13, 18, 2, 17, 12, 5, 11, 3, 15, 1, 16, 8, 6, 7, 14, 20, 19, 10, 9, 4, 13, 18, 2, 17, 12, 5, 11, 3, 15, 1, 16, 8, 6, 7]
bestever    1576    in generation 1434
[14, 20, 12, 19, 10, 9, 4, 13, 18, 2, 17, 5, 11, 3, 15, 1, 16, 8, 6, 7, 14, 20, 12, 19, 10, 9, 4, 13, 18, 2, 17, 5, 11, 3, 15, 1, 16, 8, 6, 7, 14, 20, 12, 19, 10, 9, 4, 13, 18, 2, 17, 5, 11, 3, 15, 1, 16, 8, 6, 7, 14, 20, 12, 19, 10, 9, 4, 13, 18, 2, 17, 5, 11, 3, 15, 1, 16, 8, 6, 7, 14, 20, 12, 19, 10, 9, 4, 13, 18, 2, 17, 5, 11, 3, 15, 1, 16, 8, 7, 6, 14, 20, 12, 19, 10, 9, 4, 13, 18, 2, 17, 5, 11, 3, 15, 1, 16, 8, 7, 6, 14, 20, 12, 19, 10, 9, 4, 13, 18, 2, 17, 5, 11, 3, 15, 1, 16, 8, 6, 7, 14, 20, 12, 19, 10, 9, 4, 13, 18, 2, 17, 5, 11, 3, 15, 1, 16, 8, 6, 7, 14, 20, 12, 19, 10, 9, 4, 13, 18, 2, 17, 5, 11, 3, 15, 1, 16, 8, 6, 7, 14, 20, 12, 19, 10, 9, 4, 13, 18, 2, 17, 5, 11, 3, 15, 1, 16, 8, 6, 7]
bestever    1561    in generation 1555
[14, 2, 20, 12, 19, 10, 9, 4, 13, 18, 17, 5, 11, 3, 15, 1, 16, 8, 6, 7, 14, 2, 20, 12, 19, 10, 9, 4, 13, 18, 17, 5, 11, 3, 15, 1, 16, 8, 6, 7, 14, 2, 20, 12, 19, 10, 4, 9, 13, 18, 17, 5, 11, 3, 15, 1, 16, 8, 6, 7, 14, 2, 20, 12, 19, 4, 10, 9, 13, 18, 17, 5, 11, 3, 15, 1, 16, 8, 6, 7, 14, 2, 20, 12, 19, 10, 9, 4, 13, 18, 17, 5, 11, 3, 15, 1, 16, 8, 6, 7, 14, 2, 20, 12, 19, 10, 9, 4, 13, 18, 17, 5, 11, 3, 15, 1, 16, 8, 6, 7, 14, 2, 20, 12, 19, 10, 9, 4, 13, 18, 17, 5, 11, 3, 15, 1, 16, 8, 6, 7, 20, 2, 14, 12, 19, 10, 9, 4, 13, 18, 17, 5, 11, 3, 15, 1, 16, 8, 6, 7, 14, 2, 20, 12, 19, 4, 10, 9, 13, 18, 17, 5, 11, 3, 15, 1, 16, 8, 6, 7, 14, 2, 20, 12, 19, 10, 9, 4, 13, 18, 17, 5, 11, 3, 15, 1, 16, 8, 6, 7]
bestever    1553    in generation 1684
[14, 2, 20, 12, 19, 10, 9, 4, 13, 18, 17, 5, 15, 1, 3, 16, 11, 8, 6, 7, 14, 2, 20, 12, 19, 10, 9, 4, 13, 18, 17, 5, 15, 1, 3, 16, 11, 8, 6, 7, 14, 2, 20, 12, 19, 10, 4, 9, 13, 18, 17, 5, 15, 1, 3, 16, 11, 8, 6, 7, 14, 2, 20, 12, 19, 4, 10, 9, 13, 18, 17, 5, 15, 1, 3, 16, 11, 8, 6, 7, 14, 2, 20, 12, 19, 10, 9, 4, 13, 18, 17, 5, 15, 1, 3, 16, 11, 8, 6, 7, 14, 2, 20, 12, 19, 10, 9, 4, 13, 18, 17, 5, 15, 1, 3, 16, 11, 8, 6, 7, 14, 2, 20, 12, 19, 10, 9, 4, 13, 18, 17, 5, 15, 1, 3, 16, 11, 8, 6, 7, 20, 2, 14, 12, 19, 10, 9, 4, 13, 18, 17, 5, 15, 1, 3, 16, 11, 8, 6, 7, 14, 2, 20, 12, 19, 4, 10, 9, 13, 18, 17, 5, 15, 1, 3, 16, 11, 8, 6, 7, 14, 2, 20, 12, 19, 10, 9, 4, 13, 18, 17, 5, 15, 1, 3, 16, 11, 8, 6, 7]
bestever    1538    in generation 1791
[14, 2, 12, 20, 19, 10, 9, 4, 13, 18, 17, 5, 3, 15, 1, 16, 11, 8, 6, 7, 14, 2, 12, 20, 19, 10, 9, 4, 13, 18, 17, 5, 3, 15, 1, 16, 11, 8, 6, 7, 14, 2, 12, 20, 19, 10, 9, 4, 13, 18, 17, 5, 3, 15, 1, 16, 11, 8, 6, 7, 14, 2, 12, 20, 19, 10, 9, 4, 13, 18, 17, 5, 3, 15, 1, 16, 11, 8, 6, 7, 14, 2, 20, 12, 19, 10, 9, 4, 13, 18, 17, 5, 3, 15, 1, 16, 11, 8, 6, 7, 14, 2, 20, 12, 19, 10, 9, 4, 13, 18, 17, 5, 3, 15, 1, 16, 11, 8, 6, 7, 14, 2, 20, 12, 19, 10, 9, 4, 13, 18, 17, 5, 3, 15, 1, 16, 11, 8, 6, 7, 20, 2, 14, 12, 19, 10, 9, 4, 13, 18, 17, 5, 3, 15, 1, 16, 11, 8, 6, 7, 14, 2, 20, 12, 19, 4, 10, 9, 13, 18, 17, 5, 3, 15, 1, 16, 11, 8, 6, 7, 14, 2, 20, 12, 19, 10, 9, 4, 13, 18, 17, 5, 3, 15, 1, 16, 11, 8, 6, 7]
bestever    1531    in generation 1900
[16, 14, 2, 12, 20, 19, 10, 9, 4, 13, 18, 17, 5, 15, 1, 3, 11, 8, 6, 7, 16, 14, 2, 12, 20, 19, 10, 9, 4, 13, 18, 17, 5, 15, 1, 3, 11, 8, 6, 7, 16, 14, 2, 12, 20, 19, 10, 9, 4, 13, 18, 17, 5, 15, 1, 3, 11, 8, 6, 7, 16, 14, 2, 12, 20, 19, 10, 9, 4, 13, 18, 17, 5, 15, 1, 3, 11, 8, 6, 7, 16, 14, 2, 20, 12, 19, 10, 9, 4, 13, 18, 17, 5, 15, 1, 3, 11, 8, 6, 7, 16, 14, 2, 20, 12, 19, 10, 9, 4, 13, 18, 17, 5, 15, 1, 3, 11, 8, 6, 7, 16, 14, 2, 20, 12, 19, 10, 9, 4, 13, 18, 17, 5, 15, 1, 3, 11, 8, 6, 7, 16, 20, 2, 14, 12, 19, 10, 9, 4, 13, 18, 17, 5, 15, 1, 3, 11, 8, 6, 7, 16, 14, 2, 20, 12, 19, 4, 10, 9, 13, 18, 17, 5, 15, 1, 3, 11, 8, 6, 7, 16, 14, 2, 20, 12, 19, 4, 10, 9, 13, 18, 17, 5, 15, 1, 3, 11, 8, 6, 7]
bestever    1522    in generation 2026
[16, 14, 2, 12, 20, 19, 10, 9, 4, 13, 18, 17, 5, 15, 1, 3, 11, 8, 7, 6, 16, 14, 2, 12, 20, 19, 10, 9, 4, 13, 18, 17, 5, 15, 1, 3, 11, 8, 7, 6, 16, 14, 2, 12, 20, 19, 10, 9, 4, 13, 18, 17, 5, 15, 1, 3, 11, 8, 7, 6, 16, 14, 2, 20, 12, 19, 10, 9, 4, 13, 18, 17, 5, 15, 1, 3, 11, 8, 7, 6, 16, 14, 2, 20, 12, 19, 10, 9, 4, 13, 18, 17, 5, 15, 1, 3, 11, 8, 7, 6, 2, 20, 16, 14, 12, 19, 10, 9, 4, 13, 18, 17, 5, 15, 1, 3, 11, 8, 7, 6, 16, 14, 2, 20, 12, 19, 10, 9, 4, 13, 18, 17, 5, 15, 1, 3, 11, 8, 7, 6, 16, 14, 2, 12, 20, 19, 10, 9, 4, 13, 18, 17, 5, 15, 1, 3, 11, 8, 7, 6, 16, 14, 2, 12, 20, 19, 10, 9, 4, 13, 18, 17, 5, 15, 1, 3, 11, 8, 7, 6, 16, 14, 2, 12, 20, 19, 10, 9, 4, 13, 18, 17, 5, 15, 1, 3, 11, 8, 7, 6]
bestever    1503    in generation 2156
[16, 14, 2, 12, 19, 10, 9, 20, 4, 13, 18, 17, 5, 15, 1, 8, 3, 11, 7, 6, 16, 14, 2, 12, 19, 10, 9, 20, 4, 13, 18, 17, 5, 15, 1, 8, 3, 11, 7, 6, 16, 14, 2, 12, 19, 10, 9, 20, 4, 13, 18, 17, 5, 15, 1, 8, 3, 11, 7, 6, 16, 14, 2, 12, 19, 10, 20, 9, 4, 13, 18, 17, 5, 15, 1, 8, 3, 11, 7, 6, 16, 14, 2, 12, 19, 10, 20, 9, 4, 13, 18, 17, 5, 15, 1, 8, 3, 11, 7, 6, 16, 14, 2, 12, 19, 10, 20, 9, 4, 13, 18, 17, 5, 15, 1, 8, 3, 11, 7, 6, 16, 14, 2, 12, 19, 10, 9, 20, 4, 13, 18, 17, 5, 15, 1, 8, 3, 11, 7, 6, 16, 14, 2, 12, 19, 10, 9, 20, 4, 13, 18, 17, 5, 15, 1, 8, 3, 11, 7, 6, 16, 14, 2, 12, 19, 10, 9, 20, 4, 13, 18, 17, 5, 15, 1, 8, 3, 11, 7, 6, 16, 14, 2, 12, 19, 10, 9, 20, 4, 13, 18, 17, 5, 15, 1, 8, 3, 11, 7, 6]
bestever    1492    in generation 2267
[16, 14, 2, 12, 19, 10, 9, 20, 4, 13, 18, 17, 5, 15, 1, 8, 11, 3, 7, 6, 16, 14, 2, 12, 19, 10, 9, 20, 4, 13, 18, 17, 5, 15, 1, 8, 11, 3, 7, 6, 16, 14, 2, 12, 19, 10, 9, 20, 4, 13, 18, 17, 5, 15, 1, 8, 11, 3, 7, 6, 16, 14, 2, 12, 19, 10, 9, 20, 4, 13, 18, 17, 5, 15, 1, 8, 11, 3, 7, 6, 16, 14, 2, 12, 19, 10, 9, 20, 4, 13, 18, 17, 5, 15, 1, 8, 11, 3, 7, 6, 16, 14, 2, 12, 19, 10, 9, 20, 4, 13, 18, 17, 5, 15, 1, 8, 11, 3, 7, 6, 16, 14, 2, 12, 19, 10, 9, 20, 4, 13, 18, 17, 5, 15, 1, 8, 11, 3, 7, 6, 16, 14, 2, 12, 19, 10, 9, 20, 4, 13, 18, 17, 5, 15, 1, 8, 11, 3, 7, 6, 16, 14, 2, 12, 19, 10, 9, 20, 4, 13, 18, 17, 5, 15, 1, 8, 11, 3, 7, 6, 16, 14, 12, 19, 10, 9, 20, 4, 2, 13, 18, 17, 5, 15, 1, 8, 11, 3, 7, 6]
bestever    1490    in generation 2370
[2, 16, 14, 12, 19, 10, 9, 20, 4, 13, 18, 17, 5, 15, 1, 8, 11, 3, 7, 6, 2, 16, 14, 12, 19, 10, 9, 20, 4, 13, 18, 17, 5, 15, 1, 8, 11, 3, 7, 6, 2, 16, 14, 12, 19, 10, 9, 20, 4, 13, 18, 17, 5, 15, 1, 8, 11, 3, 7, 6, 2, 16, 14, 12, 19, 10, 9, 20, 4, 13, 18, 17, 5, 15, 1, 8, 11, 3, 7, 6, 2, 16, 14, 12, 19, 10, 9, 20, 4, 13, 18, 17, 5, 15, 1, 8, 11, 3, 7, 6, 2, 16, 14, 12, 19, 10, 9, 20, 4, 13, 18, 17, 5, 15, 1, 8, 11, 3, 7, 6, 2, 16, 14, 12, 19, 10, 9, 20, 4, 13, 18, 17, 5, 15, 1, 8, 11, 3, 7, 6, 2, 16, 14, 12, 19, 10, 9, 20, 4, 13, 18, 17, 5, 15, 1, 8, 11, 3, 7, 6, 2, 16, 14, 12, 19, 10, 9, 20, 4, 13, 18, 17, 5, 15, 1, 8, 11, 3, 7, 6, 16, 14, 12, 19, 10, 9, 2, 20, 4, 13, 18, 17, 5, 15, 1, 8, 11, 3, 7, 6]
bestever    1487    in generation 2472
[16, 2, 14, 12, 19, 10, 9, 20, 4, 13, 18, 17, 5, 15, 1, 8, 11, 3, 7, 6, 16, 2, 14, 12, 19, 10, 9, 20, 4, 13, 18, 17, 5, 15, 1, 8, 11, 3, 7, 6, 16, 2, 14, 12, 19, 10, 9, 20, 4, 13, 18, 17, 5, 15, 1, 8, 11, 3, 7, 6, 16, 2, 14, 12, 19, 10, 9, 20, 4, 13, 18, 17, 5, 15, 1, 8, 11, 3, 7, 6, 16, 2, 14, 12, 19, 10, 9, 20, 4, 13, 18, 17, 5, 15, 1, 8, 11, 3, 7, 6, 16, 2, 14, 12, 19, 10, 9, 20, 4, 13, 18, 17, 5, 15, 1, 8, 11, 3, 7, 6, 16, 2, 14, 12, 19, 10, 9, 20, 4, 13, 18, 17, 5, 15, 1, 8, 11, 3, 7, 6, 16, 2, 14, 12, 19, 10, 9, 20, 4, 13, 18, 17, 5, 15, 1, 8, 11, 3, 7, 6, 16, 2, 14, 12, 19, 10, 9, 20, 4, 13, 18, 17, 5, 15, 1, 8, 11, 3, 7, 6, 16, 2, 14, 12, 19, 10, 9, 20, 4, 13, 18, 17, 5, 15, 1, 8, 11, 3, 7, 6]
bestever    1482    in generation 2600
[16, 2, 14, 12, 10, 9, 20, 4, 19, 13, 18, 17, 5, 15, 1, 8, 11, 3, 7, 6, 16, 2, 14, 12, 10, 9, 20, 4, 19, 13, 18, 17, 5, 15, 1, 8, 11, 3, 7, 6, 16, 2, 14, 12, 10, 9, 20, 4, 19, 13, 18, 17, 5, 15, 1, 8, 11, 3, 7, 6, 16, 2, 14, 12, 10, 9, 20, 4, 19, 13, 18, 17, 5, 15, 1, 8, 11, 3, 7, 6, 16, 2, 14, 12, 10, 9, 20, 4, 19, 13, 18, 17, 5, 15, 1, 8, 11, 3, 7, 6, 16, 2, 14, 12, 10, 9, 20, 4, 19, 13, 18, 17, 5, 15, 1, 8, 11, 3, 7, 6, 16, 2, 14, 12, 10, 9, 20, 4, 19, 13, 18, 17, 5, 15, 1, 8, 11, 3, 7, 6, 16, 2, 14, 12, 10, 9, 20, 4, 19, 13, 18, 17, 5, 15, 1, 8, 11, 3, 7, 6, 16, 2, 14, 12, 10, 9, 20, 4, 19, 13, 18, 17, 5, 15, 1, 8, 11, 3, 7, 6, 16, 2, 14, 12, 10, 9, 20, 4, 19, 13, 18, 17, 5, 15, 1, 8, 11, 3, 7, 6]
bestever    1477    in generation 2706
[16, 2, 14, 12, 10, 9, 20, 4, 19, 13, 18, 5, 15, 17, 1, 8, 11, 3, 7, 6, 16, 2, 14, 12, 10, 9, 20, 4, 19, 13, 18, 5, 15, 17, 1, 8, 11, 3, 7, 6, 16, 2, 14, 12, 10, 9, 20, 4, 19, 13, 18, 5, 15, 17, 1, 8, 11, 3, 7, 6, 16, 2, 14, 12, 10, 9, 20, 4, 19, 13, 18, 5, 15, 17, 1, 8, 11, 3, 7, 6, 16, 2, 14, 12, 10, 9, 20, 4, 19, 13, 18, 5, 15, 17, 1, 8, 11, 3, 7, 6, 16, 2, 14, 12, 10, 9, 20, 4, 19, 13, 18, 5, 15, 17, 1, 8, 11, 3, 7, 6, 16, 2, 14, 12, 10, 9, 20, 4, 19, 13, 18, 5, 15, 17, 1, 8, 11, 3, 7, 6, 16, 2, 14, 12, 10, 9, 20, 4, 19, 13, 18, 5, 15, 17, 1, 8, 11, 3, 7, 6, 16, 2, 14, 12, 10, 9, 20, 4, 19, 13, 18, 5, 15, 17, 1, 8, 11, 3, 7, 6, 16, 2, 14, 12, 10, 9, 20, 4, 19, 13, 18, 5, 15, 17, 1, 8, 11, 3, 7, 6]
bestever    1475    in generation 2848
[16, 2, 14, 10, 12, 9, 20, 4, 19, 13, 18, 5, 15, 17, 1, 8, 11, 3, 7, 6, 16, 2, 14, 10, 12, 9, 20, 4, 19, 13, 18, 5, 15, 17, 1, 8, 11, 3, 7, 6, 16, 2, 14, 10, 12, 9, 20, 4, 19, 13, 18, 5, 15, 17, 1, 8, 11, 3, 7, 6, 16, 2, 14, 10, 12, 9, 20, 4, 19, 13, 18, 5, 15, 17, 1, 8, 11, 3, 7, 6, 16, 2, 14, 10, 12, 9, 20, 4, 19, 13, 18, 5, 15, 17, 1, 8, 11, 3, 7, 6, 16, 2, 14, 10, 12, 9, 20, 4, 19, 13, 18, 5, 15, 17, 1, 8, 11, 3, 7, 6, 16, 2, 14, 10, 12, 9, 20, 4, 19, 13, 18, 5, 15, 17, 1, 8, 11, 3, 7, 6, 16, 2, 14, 10, 12, 9, 20, 4, 19, 13, 18, 5, 15, 17, 1, 8, 11, 3, 7, 6, 16, 2, 14, 10, 12, 9, 20, 4, 19, 13, 18, 5, 15, 17, 1, 8, 11, 3, 7, 6, 16, 2, 14, 10, 12, 9, 20, 4, 19, 13, 18, 5, 15, 17, 1, 8, 11, 3, 7, 6]
bestever    1474    in generation 2981
[16, 2, 14, 10, 9, 12, 20, 4, 19, 13, 18, 5, 15, 17, 1, 8, 11, 3, 7, 6, 16, 2, 14, 10, 9, 12, 20, 4, 19, 13, 18, 5, 15, 17, 1, 8, 11, 3, 7, 6, 16, 2, 14, 10, 9, 12, 20, 4, 19, 13, 18, 5, 15, 17, 1, 8, 11, 3, 7, 6, 16, 2, 14, 10, 9, 12, 20, 4, 19, 13, 18, 5, 15, 17, 1, 8, 11, 3, 7, 6, 16, 2, 14, 10, 9, 12, 20, 4, 19, 13, 18, 5, 15, 17, 1, 8, 11, 3, 7, 6, 16, 2, 14, 10, 9, 12, 20, 4, 19, 13, 18, 5, 15, 17, 1, 8, 11, 3, 7, 6, 16, 2, 14, 10, 9, 12, 20, 4, 19, 13, 18, 5, 15, 17, 1, 8, 11, 3, 7, 6, 16, 2, 14, 10, 9, 12, 20, 4, 19, 13, 18, 5, 15, 17, 1, 8, 11, 3, 7, 6, 16, 2, 14, 10, 9, 12, 20, 4, 19, 13, 18, 5, 15, 17, 1, 8, 11, 3, 7, 6, 16, 2, 14, 10, 9, 12, 20, 4, 19, 13, 18, 5, 15, 17, 1, 8, 11, 3, 7, 6]
bestever    1472    in generation 3131
[14, 16, 2, 9, 12, 4, 20, 19, 10, 13, 18, 5, 15, 17, 1, 8, 11, 3, 7, 6, 14, 16, 2, 9, 12, 4, 20, 19, 10, 13, 18, 5, 15, 17, 1, 8, 11, 3, 7, 6, 14, 16, 2, 9, 12, 4, 20, 19, 10, 13, 18, 5, 15, 17, 1, 8, 11, 3, 7, 6, 14, 16, 2, 9, 12, 4, 20, 19, 10, 13, 18, 5, 15, 17, 1, 8, 11, 3, 7, 6, 14, 16, 2, 9, 12, 4, 20, 19, 10, 13, 18, 5, 15, 17, 1, 8, 11, 3, 7, 6, 14, 16, 2, 9, 12, 4, 20, 19, 10, 13, 18, 5, 15, 17, 1, 8, 11, 3, 7, 6, 14, 16, 2, 9, 12, 4, 20, 19, 10, 13, 18, 5, 15, 17, 1, 8, 11, 3, 7, 6, 14, 16, 2, 9, 12, 4, 20, 10, 19, 13, 18, 5, 15, 17, 1, 8, 11, 3, 7, 6, 14, 16, 2, 9, 12, 4, 20, 10, 19, 13, 18, 5, 15, 17, 1, 8, 11, 3, 7, 6, 14, 16, 2, 9, 12, 4, 20, 10, 19, 13, 18, 5, 15, 17, 1, 8, 11, 3, 7, 6]
bestever    1468    in generation 3284
[14, 2, 16, 9, 12, 4, 20, 19, 10, 13, 18, 5, 15, 17, 1, 8, 11, 3, 7, 6, 14, 2, 16, 9, 12, 4, 20, 19, 10, 13, 18, 5, 15, 17, 1, 8, 11, 3, 7, 6, 14, 2, 16, 9, 12, 4, 20, 19, 10, 13, 18, 5, 15, 17, 1, 8, 11, 3, 7, 6, 14, 2, 16, 9, 12, 4, 20, 19, 10, 13, 18, 5, 15, 17, 1, 8, 11, 3, 7, 6, 14, 2, 16, 9, 12, 4, 20, 19, 10, 13, 18, 5, 15, 17, 1, 8, 11, 3, 7, 6, 14, 2, 16, 9, 12, 4, 20, 19, 10, 13, 18, 5, 15, 17, 1, 8, 11, 3, 7, 6, 14, 2, 16, 9, 12, 4, 20, 19, 10, 13, 18, 5, 15, 17, 1, 8, 11, 3, 7, 6, 14, 2, 16, 9, 12, 4, 20, 19, 10, 13, 18, 5, 15, 17, 1, 8, 11, 3, 7, 6, 14, 2, 16, 9, 12, 4, 20, 19, 10, 13, 18, 5, 15, 17, 1, 8, 11, 3, 7, 6, 2, 16, 9, 14, 12, 4, 20, 19, 10, 13, 18, 5, 15, 17, 1, 8, 11, 3, 7, 6]
bestever    1467    in generation 8386
[16, 2, 14, 9, 10, 12, 4, 20, 19, 13, 15, 1, 18, 5, 8, 11, 3, 17, 7, 6, 16, 2, 14, 9, 10, 12, 4, 20, 19, 13, 15, 1, 18, 5, 8, 11, 3, 17, 7, 6, 16, 2, 14, 9, 10, 12, 4, 20, 19, 13, 15, 1, 18, 5, 8, 11, 3, 17, 7, 6, 16, 2, 14, 9, 10, 12, 4, 20, 19, 13, 15, 1, 18, 5, 8, 11, 3, 17, 7, 6, 16, 2, 14, 9, 10, 12, 4, 20, 19, 13, 15, 1, 18, 5, 8, 11, 3, 17, 7, 6, 16, 2, 14, 9, 10, 12, 4, 20, 19, 13, 15, 1, 18, 5, 8, 11, 3, 17, 7, 6, 16, 2, 14, 9, 10, 12, 4, 20, 19, 13, 15, 1, 18, 5, 8, 11, 3, 17, 7, 6, 16, 2, 14, 9, 10, 12, 4, 20, 19, 13, 15, 1, 18, 5, 8, 11, 3, 17, 7, 6, 16, 2, 14, 9, 10, 12, 4, 20, 19, 13, 15, 1, 18, 5, 8, 11, 3, 17, 7, 6, 16, 2, 14, 9, 10, 12, 4, 20, 19, 13, 15, 1, 18, 5, 8, 11, 3, 17, 7, 6]
bestever    1466    in generation 8525
[16, 2, 14, 9, 10, 12, 4, 20, 19, 3, 13, 15, 1, 18, 5, 8, 11, 17, 7, 6, 16, 2, 14, 9, 10, 12, 4, 20, 19, 3, 13, 15, 1, 18, 5, 8, 11, 17, 7, 6, 16, 2, 14, 9, 10, 12, 4, 20, 19, 3, 13, 15, 1, 18, 5, 8, 11, 17, 7, 6, 16, 2, 14, 9, 10, 12, 4, 20, 19, 3, 13, 15, 1, 18, 5, 8, 11, 17, 7, 6, 16, 2, 14, 9, 10, 12, 4, 20, 19, 3, 13, 15, 1, 18, 5, 8, 11, 17, 7, 6, 16, 2, 14, 9, 10, 12, 4, 20, 19, 3, 13, 15, 1, 18, 5, 8, 11, 17, 7, 6, 16, 2, 14, 9, 10, 12, 4, 20, 19, 3, 13, 15, 1, 18, 5, 8, 11, 17, 7, 6, 16, 2, 14, 9, 10, 12, 4, 20, 19, 3, 13, 15, 1, 18, 5, 8, 11, 17, 7, 6, 16, 2, 14, 9, 10, 12, 4, 20, 19, 3, 13, 15, 1, 18, 5, 8, 11, 17, 7, 6, 16, 2, 14, 9, 10, 12, 4, 20, 19, 3, 13, 15, 1, 18, 5, 8, 11, 17, 7, 6]
bestever    1465    in generation 8659
[16, 2, 14, 9, 12, 4, 20, 19, 3, 10, 13, 15, 1, 18, 5, 8, 11, 17, 7, 6, 16, 2, 14, 9, 12, 4, 20, 19, 3, 10, 13, 15, 1, 18, 5, 8, 11, 17, 7, 6, 16, 2, 14, 9, 12, 4, 20, 19, 3, 10, 13, 15, 1, 18, 5, 8, 11, 17, 7, 6, 16, 2, 14, 9, 12, 4, 20, 19, 3, 10, 13, 15, 1, 18, 5, 8, 11, 17, 7, 6, 16, 2, 14, 9, 12, 4, 20, 19, 3, 10, 13, 15, 1, 18, 5, 8, 11, 17, 7, 6, 2, 16, 14, 9, 12, 4, 20, 19, 3, 10, 13, 15, 1, 18, 5, 8, 11, 17, 7, 6, 16, 14, 2, 9, 12, 4, 20, 19, 3, 10, 13, 15, 1, 18, 5, 8, 11, 17, 7, 6, 16, 14, 2, 9, 12, 4, 20, 19, 3, 10, 13, 15, 1, 18, 5, 8, 11, 17, 7, 6, 16, 14, 2, 9, 12, 4, 20, 19, 3, 10, 13, 15, 1, 18, 5, 8, 11, 17, 7, 6, 16, 14, 2, 9, 12, 4, 20, 19, 3, 10, 13, 15, 1, 18, 5, 8, 11, 17, 7, 6]
bestever    1455    in generation 8785
[16, 2, 14, 9, 12, 4, 20, 19, 3, 10, 13, 15, 1, 18, 5, 8, 7, 11, 17, 6, 16, 2, 14, 9, 12, 4, 20, 19, 3, 10, 13, 15, 1, 18, 5, 8, 7, 11, 17, 6, 16, 2, 14, 9, 12, 4, 20, 19, 3, 10, 13, 15, 1, 18, 5, 8, 7, 11, 17, 6, 16, 2, 14, 9, 12, 4, 20, 19, 3, 10, 13, 15, 1, 18, 5, 8, 7, 11, 17, 6, 16, 2, 14, 9, 12, 4, 20, 19, 3, 10, 13, 15, 1, 18, 5, 8, 7, 11, 17, 6, 2, 16, 14, 9, 12, 4, 20, 19, 3, 10, 13, 15, 1, 18, 5, 8, 7, 11, 17, 6, 16, 14, 2, 9, 12, 4, 20, 19, 3, 10, 13, 15, 1, 18, 5, 8, 7, 11, 17, 6, 16, 14, 2, 9, 12, 4, 20, 19, 3, 10, 13, 15, 1, 18, 5, 8, 7, 11, 17, 6, 16, 14, 2, 9, 12, 4, 20, 19, 3, 10, 13, 15, 1, 18, 5, 8, 7, 11, 17, 6, 16, 12, 4, 20, 19, 3, 10, 13, 14, 9, 15, 1, 2, 18, 5, 8, 7, 11, 17, 6]
bestever    1453    in generation 8916
[16, 2, 14, 9, 12, 4, 20, 19, 10, 3, 13, 15, 1, 18, 5, 8, 7, 11, 17, 6, 16, 2, 14, 9, 12, 4, 20, 19, 10, 3, 13, 15, 1, 18, 5, 8, 7, 11, 17, 6, 16, 2, 14, 9, 12, 4, 20, 19, 10, 3, 13, 15, 1, 18, 5, 8, 7, 11, 17, 6, 16, 2, 14, 9, 12, 4, 20, 19, 10, 3, 13, 15, 1, 18, 5, 8, 7, 11, 17, 6, 16, 2, 14, 9, 12, 4, 20, 19, 10, 3, 13, 15, 1, 18, 5, 8, 7, 11, 17, 6, 16, 2, 14, 9, 12, 4, 20, 19, 10, 3, 13, 15, 1, 18, 5, 8, 7, 11, 17, 6, 16, 14, 2, 9, 12, 4, 20, 19, 10, 3, 13, 15, 1, 18, 5, 8, 7, 11, 17, 6, 16, 14, 2, 9, 12, 4, 20, 19, 10, 3, 13, 15, 1, 18, 5, 8, 7, 11, 17, 6, 16, 14, 2, 9, 12, 4, 20, 19, 10, 3, 13, 15, 1, 18, 5, 8, 7, 11, 17, 6, 16, 12, 4, 20, 19, 10, 3, 13, 14, 9, 15, 1, 2, 18, 5, 8, 7, 11, 17, 6]
bestever    1449    in generation 9915
[16, 2, 14, 9, 12, 4, 20, 19, 13, 10, 3, 15, 1, 18, 5, 8, 11, 17, 7, 6, 16, 2, 14, 9, 12, 4, 20, 19, 13, 10, 3, 15, 1, 18, 5, 8, 11, 17, 7, 6, 16, 2, 14, 9, 12, 4, 20, 19, 13, 10, 3, 15, 1, 18, 5, 8, 11, 17, 7, 6, 16, 2, 14, 9, 12, 4, 20, 19, 13, 10, 3, 15, 1, 18, 5, 8, 11, 17, 7, 6, 16, 2, 14, 9, 12, 4, 20, 19, 13, 10, 3, 15, 1, 18, 5, 8, 11, 17, 7, 6, 16, 2, 14, 9, 12, 4, 20, 19, 13, 10, 3, 15, 1, 18, 5, 8, 11, 17, 7, 6, 16, 2, 14, 9, 12, 4, 20, 19, 13, 10, 3, 15, 1, 18, 5, 8, 11, 17, 7, 6, 16, 2, 14, 9, 12, 4, 20, 19, 13, 10, 3, 15, 1, 18, 5, 8, 11, 17, 7, 6, 16, 2, 14, 9, 12, 4, 20, 19, 13, 10, 3, 15, 1, 18, 5, 8, 11, 17, 7, 6, 16, 14, 9, 12, 4, 19, 2, 13, 10, 3, 20, 15, 1, 18, 5, 8, 11, 17, 7, 6]
